NAME = SAfile175,
TOURSIZE = 175,
LENGTH = 21423,
142,3,30,56,111,90,158,94,135,88,152,141,63,145,96,52,138,115,43,20,109,4,174,162,78,34,130,143,95,54,106,55,129,51,107,12,121,22,165,126,164,33,18,122,10,77,66,128,59,11,173,24,149,70,153,140,99,132,36,21,41,134,85,84,151,104,112,91,71,81,172,157,32,80,144,102,123,167,103,50,105,159,64,53,170,92,48,114,31,69,93,19,120,39,5,26,72,118,49,148,89,46,171,119,110,17,137,2,83,62,139,25,15,9,116,133,29,45,166,68,154,87,7,74,113,38,37,47,82,44,97,136,161,75,108,13,127,101,73,1,27,40,131,61,79,156,98,67,163,117,35,146,16,6,42,160,58,100,65,23,168,28,169,147,150,14,57,155,8,125,76,86,124,175,60